NAME: set3_case1_1_25
COMMENT: 650
VEHICLE: 27
TIME: 600
DIMENSION: 20
CAPACITY: 10
DELIVERY_SECTION
0 0 0
1 1 1
2 2 1
3 3 1
4 4 1
5 5 1
6 6 1
7 7 1
8 8 1
9 9 1
10 10 1
11 11 1
12 12 1
13 13 1
14 14 1
15 15 1
16 16 1
17 17 1
18 18 1
19 19 1
PICKUP_SECTION
0 0 0
1 1 2.5
2 1 2.5
3 2 2.5
4 2 2.5
5 2 1
6 3 2.5
7 3 2.5
8 3 1
9 3 1
10 4 2.5
11 4 2.5
12 4 2.5
13 4 0.5
14 5 2.5
15 5 2.5
16 5 2.5
17 5 1
18 5 0.5
19 6 2.5
20 6 2.5
21 6 2.5
22 6 2.5
23 7 2.5
24 7 2.5
25 7 2.5
26 7 2.5
27 7 1
28 8 2.5
29 8 2.5
30 8 2.5
31 8 2.5
32 8 1
33 8 1
34 9 2.5
35 9 2.5
36 9 2.5
37 9 2.5
38 9 2.5
39 9 0.5
40 10 2.5
41 10 2.5
42 10 2.5
43 10 2.5
44 10 2.5
45 10 1
46 10 0.5
47 11 2.5
48 11 2.5
49 11 2.5
50 11 2.5
51 11 2.5
52 11 2.5
53 12 2.5
54 12 2.5
55 12 2.5
56 12 2.5
57 12 2.5
58 12 2.5
59 12 1
60 13 2.5
61 13 2.5
62 13 2.5
63 13 2.5
64 13 2.5
65 13 2.5
66 13 1
67 13 1
68 14 2.5
69 14 2.5
70 14 2.5
71 14 2.5
72 14 2.5
73 14 2.5
74 14 2.5
75 14 0.5
76 15 2.5
77 15 2.5
78 15 2.5
79 15 2.5
80 15 2.5
81 15 2.5
82 15 2.5
83 15 1
84 15 0.5
85 16 2.5
86 16 2.5
87 16 2.5
88 16 2.5
89 16 2.5
90 16 2.5
91 16 2.5
92 16 2.5
93 17 2.5
94 17 2.5
95 17 2.5
96 17 2.5
97 17 2.5
98 17 2.5
99 17 2.5
100 17 2.5
101 17 1
102 18 2.5
103 18 2.5
104 18 2.5
105 18 2.5
106 18 2.5
107 18 2.5
108 18 2.5
109 18 2.5
110 18 1
111 18 1
112 19 2.5
113 19 2.5
114 19 2.5
115 19 2.5
116 19 2.5
117 19 2.5
118 19 2.5
119 19 2.5
120 19 2.5
121 19 0.5
NODE_SECTION
DISTANCE_SECTION
10 10 10 10 10 10 10 10 10 10 10 10 10 10 10 10 10 10 10 
10 10 10 10 10 10 10 10 10 10 10 10 10 10 10 10 10 10 
10 10 10 10 10 10 10 10 10 10 10 10 10 10 10 10 10 
10 10 10 10 10 10 10 10 10 10 10 10 10 10 10 10 
10 10 10 10 10 10 10 10 10 10 10 10 10 10 10 
10 10 10 10 10 10 10 10 10 10 10 10 10 10 
10 10 10 10 10 10 10 10 10 10 10 10 10 
10 10 10 10 10 10 10 10 10 10 10 10 
10 10 10 10 10 10 10 10 10 10 10 
10 10 10 10 10 10 10 10 10 10 
10 10 10 10 10 10 10 10 10 
10 10 10 10 10 10 10 10 
10 10 10 10 10 10 10 
10 10 10 10 10 10 
10 10 10 10 10 
10 10 10 10 
10 10 10 
10 10 
10 
DEPOT_SECTION
0
EOF